--------------------------------------------------
s SATISFIABLE
benchmarks_SAT/INST_49x49/100/inst49x49_100_0.cnf : 1917 ms.
--------------------------------------------------
s SATISFIABLE
benchmarks_SAT/INST_49x49/100/inst49x49_100_10.cnf : 1857 ms.
--------------------------------------------------
s SATISFIABLE
benchmarks_SAT/INST_49x49/100/inst49x49_100_11.cnf : 1900 ms.
--------------------------------------------------
s SATISFIABLE
benchmarks_SAT/INST_49x49/100/inst49x49_100_12.cnf : 1802 ms.
--------------------------------------------------
s SATISFIABLE
benchmarks_SAT/INST_49x49/100/inst49x49_100_13.cnf : 1803 ms.
--------------------------------------------------
s SATISFIABLE
benchmarks_SAT/INST_49x49/100/inst49x49_100_14.cnf : 1786 ms.
--------------------------------------------------
s SATISFIABLE
benchmarks_SAT/INST_49x49/100/inst49x49_100_15.cnf : 1779 ms.
--------------------------------------------------
s SATISFIABLE
benchmarks_SAT/INST_49x49/100/inst49x49_100_16.cnf : 1774 ms.
--------------------------------------------------
s SATISFIABLE
benchmarks_SAT/INST_49x49/100/inst49x49_100_17.cnf : 1871 ms.
--------------------------------------------------
s SATISFIABLE
benchmarks_SAT/INST_49x49/100/inst49x49_100_18.cnf : 1738 ms.
--------------------------------------------------
s SATISFIABLE
benchmarks_SAT/INST_49x49/100/inst49x49_100_19.cnf : 1746 ms.
--------------------------------------------------
s SATISFIABLE
benchmarks_SAT/INST_49x49/100/inst49x49_100_1.cnf : 1720 ms.
--------------------------------------------------
s SATISFIABLE
benchmarks_SAT/INST_49x49/100/inst49x49_100_20.cnf : 1774 ms.
--------------------------------------------------
s SATISFIABLE
benchmarks_SAT/INST_49x49/100/inst49x49_100_21.cnf : 1743 ms.
--------------------------------------------------
s SATISFIABLE
benchmarks_SAT/INST_49x49/100/inst49x49_100_22.cnf : 1720 ms.
--------------------------------------------------
s SATISFIABLE
benchmarks_SAT/INST_49x49/100/inst49x49_100_23.cnf : 1768 ms.
--------------------------------------------------
s SATISFIABLE
benchmarks_SAT/INST_49x49/100/inst49x49_100_24.cnf : 1768 ms.
--------------------------------------------------
s SATISFIABLE
benchmarks_SAT/INST_49x49/100/inst49x49_100_25.cnf : 1739 ms.
--------------------------------------------------
s SATISFIABLE
benchmarks_SAT/INST_49x49/100/inst49x49_100_26.cnf : 1754 ms.
--------------------------------------------------
s SATISFIABLE
benchmarks_SAT/INST_49x49/100/inst49x49_100_27.cnf : 1765 ms.
--------------------------------------------------
s SATISFIABLE
benchmarks_SAT/INST_49x49/100/inst49x49_100_28.cnf : 1741 ms.
--------------------------------------------------
s SATISFIABLE
benchmarks_SAT/INST_49x49/100/inst49x49_100_29.cnf : 1738 ms.
--------------------------------------------------
s SATISFIABLE
benchmarks_SAT/INST_49x49/100/inst49x49_100_2.cnf : 1736 ms.
--------------------------------------------------
s SATISFIABLE
benchmarks_SAT/INST_49x49/100/inst49x49_100_30.cnf : 1736 ms.
--------------------------------------------------
s SATISFIABLE
benchmarks_SAT/INST_49x49/100/inst49x49_100_31.cnf : 1715 ms.
--------------------------------------------------
s SATISFIABLE
benchmarks_SAT/INST_49x49/100/inst49x49_100_32.cnf : 1716 ms.
--------------------------------------------------
s SATISFIABLE
benchmarks_SAT/INST_49x49/100/inst49x49_100_33.cnf : 1738 ms.
--------------------------------------------------
s SATISFIABLE
benchmarks_SAT/INST_49x49/100/inst49x49_100_34.cnf : 1739 ms.
--------------------------------------------------
s SATISFIABLE
benchmarks_SAT/INST_49x49/100/inst49x49_100_35.cnf : 1745 ms.
--------------------------------------------------
s SATISFIABLE
benchmarks_SAT/INST_49x49/100/inst49x49_100_36.cnf : 1758 ms.
--------------------------------------------------
s SATISFIABLE
benchmarks_SAT/INST_49x49/100/inst49x49_100_37.cnf : 1731 ms.
--------------------------------------------------
s SATISFIABLE
benchmarks_SAT/INST_49x49/100/inst49x49_100_38.cnf : 1722 ms.
--------------------------------------------------
s SATISFIABLE
benchmarks_SAT/INST_49x49/100/inst49x49_100_39.cnf : 1747 ms.
--------------------------------------------------
s SATISFIABLE
benchmarks_SAT/INST_49x49/100/inst49x49_100_3.cnf : 1735 ms.
--------------------------------------------------
s SATISFIABLE
benchmarks_SAT/INST_49x49/100/inst49x49_100_40.cnf : 1737 ms.
--------------------------------------------------
s SATISFIABLE
benchmarks_SAT/INST_49x49/100/inst49x49_100_41.cnf : 1724 ms.
--------------------------------------------------
s SATISFIABLE
benchmarks_SAT/INST_49x49/100/inst49x49_100_42.cnf : 1723 ms.
--------------------------------------------------
s SATISFIABLE
benchmarks_SAT/INST_49x49/100/inst49x49_100_43.cnf : 1742 ms.
--------------------------------------------------
s SATISFIABLE
benchmarks_SAT/INST_49x49/100/inst49x49_100_44.cnf : 1740 ms.
--------------------------------------------------
s SATISFIABLE
benchmarks_SAT/INST_49x49/100/inst49x49_100_45.cnf : 1720 ms.
--------------------------------------------------
s SATISFIABLE
benchmarks_SAT/INST_49x49/100/inst49x49_100_46.cnf : 1694 ms.
--------------------------------------------------
s SATISFIABLE
benchmarks_SAT/INST_49x49/100/inst49x49_100_47.cnf : 1686 ms.
--------------------------------------------------
s SATISFIABLE
benchmarks_SAT/INST_49x49/100/inst49x49_100_48.cnf : 1704 ms.
--------------------------------------------------
s SATISFIABLE
benchmarks_SAT/INST_49x49/100/inst49x49_100_49.cnf : 1759 ms.
--------------------------------------------------
s SATISFIABLE
benchmarks_SAT/INST_49x49/100/inst49x49_100_4.cnf : 1680 ms.
--------------------------------------------------
s SATISFIABLE
benchmarks_SAT/INST_49x49/100/inst49x49_100_50.cnf : 1715 ms.
--------------------------------------------------
s SATISFIABLE
benchmarks_SAT/INST_49x49/100/inst49x49_100_51.cnf : 1737 ms.
--------------------------------------------------
s SATISFIABLE
benchmarks_SAT/INST_49x49/100/inst49x49_100_52.cnf : 1814 ms.
--------------------------------------------------
s SATISFIABLE
benchmarks_SAT/INST_49x49/100/inst49x49_100_53.cnf : 1716 ms.
--------------------------------------------------
s SATISFIABLE
benchmarks_SAT/INST_49x49/100/inst49x49_100_54.cnf : 1718 ms.
--------------------------------------------------
s SATISFIABLE
benchmarks_SAT/INST_49x49/100/inst49x49_100_55.cnf : 1702 ms.
--------------------------------------------------
s SATISFIABLE
benchmarks_SAT/INST_49x49/100/inst49x49_100_56.cnf : 1713 ms.
--------------------------------------------------
s SATISFIABLE
benchmarks_SAT/INST_49x49/100/inst49x49_100_57.cnf : 1673 ms.
--------------------------------------------------
s SATISFIABLE
benchmarks_SAT/INST_49x49/100/inst49x49_100_58.cnf : 1736 ms.
--------------------------------------------------
s SATISFIABLE
benchmarks_SAT/INST_49x49/100/inst49x49_100_59.cnf : 1713 ms.
--------------------------------------------------
s SATISFIABLE
benchmarks_SAT/INST_49x49/100/inst49x49_100_5.cnf : 1692 ms.
--------------------------------------------------
s SATISFIABLE
benchmarks_SAT/INST_49x49/100/inst49x49_100_60.cnf : 1700 ms.
--------------------------------------------------
s SATISFIABLE
benchmarks_SAT/INST_49x49/100/inst49x49_100_61.cnf : 1718 ms.
--------------------------------------------------
s SATISFIABLE
benchmarks_SAT/INST_49x49/100/inst49x49_100_62.cnf : 1799 ms.
--------------------------------------------------
s SATISFIABLE
benchmarks_SAT/INST_49x49/100/inst49x49_100_63.cnf : 1702 ms.
--------------------------------------------------
s SATISFIABLE
benchmarks_SAT/INST_49x49/100/inst49x49_100_64.cnf : 1789 ms.
--------------------------------------------------
s SATISFIABLE
benchmarks_SAT/INST_49x49/100/inst49x49_100_65.cnf : 1731 ms.
--------------------------------------------------
s SATISFIABLE
benchmarks_SAT/INST_49x49/100/inst49x49_100_66.cnf : 1719 ms.
--------------------------------------------------
s SATISFIABLE
benchmarks_SAT/INST_49x49/100/inst49x49_100_67.cnf : 1779 ms.
--------------------------------------------------
s SATISFIABLE
benchmarks_SAT/INST_49x49/100/inst49x49_100_68.cnf : 1722 ms.
--------------------------------------------------
s SATISFIABLE
benchmarks_SAT/INST_49x49/100/inst49x49_100_69.cnf : 1710 ms.
--------------------------------------------------
s SATISFIABLE
benchmarks_SAT/INST_49x49/100/inst49x49_100_6.cnf : 1733 ms.
--------------------------------------------------
s SATISFIABLE
benchmarks_SAT/INST_49x49/100/inst49x49_100_70.cnf : 1779 ms.
--------------------------------------------------
s SATISFIABLE
benchmarks_SAT/INST_49x49/100/inst49x49_100_71.cnf : 1751 ms.
--------------------------------------------------
s SATISFIABLE
benchmarks_SAT/INST_49x49/100/inst49x49_100_72.cnf : 1774 ms.
--------------------------------------------------
s SATISFIABLE
benchmarks_SAT/INST_49x49/100/inst49x49_100_73.cnf : 1751 ms.
--------------------------------------------------
s SATISFIABLE
benchmarks_SAT/INST_49x49/100/inst49x49_100_74.cnf : 1745 ms.
--------------------------------------------------
s SATISFIABLE
benchmarks_SAT/INST_49x49/100/inst49x49_100_75.cnf : 1745 ms.
--------------------------------------------------
s SATISFIABLE
benchmarks_SAT/INST_49x49/100/inst49x49_100_76.cnf : 1727 ms.
--------------------------------------------------
s SATISFIABLE
benchmarks_SAT/INST_49x49/100/inst49x49_100_77.cnf : 1735 ms.
--------------------------------------------------
s SATISFIABLE
benchmarks_SAT/INST_49x49/100/inst49x49_100_78.cnf : 1750 ms.
--------------------------------------------------
s SATISFIABLE
benchmarks_SAT/INST_49x49/100/inst49x49_100_79.cnf : 1746 ms.
--------------------------------------------------
s SATISFIABLE
benchmarks_SAT/INST_49x49/100/inst49x49_100_7.cnf : 1715 ms.
--------------------------------------------------
s SATISFIABLE
benchmarks_SAT/INST_49x49/100/inst49x49_100_80.cnf : 1705 ms.
--------------------------------------------------
s SATISFIABLE
benchmarks_SAT/INST_49x49/100/inst49x49_100_81.cnf : 1811 ms.
--------------------------------------------------
s SATISFIABLE
benchmarks_SAT/INST_49x49/100/inst49x49_100_82.cnf : 1842 ms.
--------------------------------------------------
s SATISFIABLE
benchmarks_SAT/INST_49x49/100/inst49x49_100_83.cnf : 1676 ms.
--------------------------------------------------
s SATISFIABLE
benchmarks_SAT/INST_49x49/100/inst49x49_100_84.cnf : 1801 ms.
--------------------------------------------------
s SATISFIABLE
benchmarks_SAT/INST_49x49/100/inst49x49_100_85.cnf : 1740 ms.
--------------------------------------------------
s SATISFIABLE
benchmarks_SAT/INST_49x49/100/inst49x49_100_86.cnf : 1725 ms.
--------------------------------------------------
s SATISFIABLE
benchmarks_SAT/INST_49x49/100/inst49x49_100_87.cnf : 1879 ms.
--------------------------------------------------
s SATISFIABLE
benchmarks_SAT/INST_49x49/100/inst49x49_100_88.cnf : 1736 ms.
--------------------------------------------------
s SATISFIABLE
benchmarks_SAT/INST_49x49/100/inst49x49_100_89.cnf : 1734 ms.
--------------------------------------------------
s SATISFIABLE
benchmarks_SAT/INST_49x49/100/inst49x49_100_8.cnf : 1713 ms.
--------------------------------------------------
s SATISFIABLE
benchmarks_SAT/INST_49x49/100/inst49x49_100_90.cnf : 1756 ms.
--------------------------------------------------
s SATISFIABLE
benchmarks_SAT/INST_49x49/100/inst49x49_100_91.cnf : 1724 ms.
--------------------------------------------------
s SATISFIABLE
benchmarks_SAT/INST_49x49/100/inst49x49_100_92.cnf : 1832 ms.
--------------------------------------------------
s SATISFIABLE
benchmarks_SAT/INST_49x49/100/inst49x49_100_93.cnf : 1702 ms.
--------------------------------------------------
s SATISFIABLE
benchmarks_SAT/INST_49x49/100/inst49x49_100_94.cnf : 1761 ms.
--------------------------------------------------
s SATISFIABLE
benchmarks_SAT/INST_49x49/100/inst49x49_100_95.cnf : 1723 ms.
--------------------------------------------------
s SATISFIABLE
benchmarks_SAT/INST_49x49/100/inst49x49_100_96.cnf : 1742 ms.
--------------------------------------------------
s SATISFIABLE
benchmarks_SAT/INST_49x49/100/inst49x49_100_97.cnf : 1743 ms.
--------------------------------------------------
s SATISFIABLE
benchmarks_SAT/INST_49x49/100/inst49x49_100_98.cnf : 1732 ms.
--------------------------------------------------
s SATISFIABLE
benchmarks_SAT/INST_49x49/100/inst49x49_100_99.cnf : 1815 ms.
--------------------------------------------------
s SATISFIABLE
benchmarks_SAT/INST_49x49/100/inst49x49_100_9.cnf : 1748 ms.
